27      4       
10      10      10      10      
0       0       0       0       0       9       2       3       5       6       7       10      13      17      18      
7       1       1       1       1       5       4       8       9       12      26      
1       1       3       3       0       8       11      12      14      16      21      23      24      25      
6       4       2       3       2       7       11      14      15      21      22      23      24      
2       1       2       2       4       5       9       14      19      22      26      
7       2       2       6       6       5       14      19      21      23      24      
6       4       2       2       1       4       14      22      24      25      
9       2       2       2       2       4       19      22      23      25      
1       1       2       4       3       3       20      21      23      
10      4       4       1       2       3       19      20      21      
1       4       2       2       3       2       19      20      
7       2       5       1       2       2       19      22      
2       2       3       2       1       2       19      26      
7       2       3       2       2       1       20      
2       4       4       1       3       1       19      
5       3       2       1       3       1       19      
2       3       2       3       3       1       21      
7       2       3       4       3       1       20      
9       7       0       5       0       1       27      
9       3       2       2       2       1       27      
9       2       4       2       4       1       27      
5       1       3       3       2       1       27      
5       2       2       4       2       1       27      
7       1       2       1       2       1       27      
9       2       2       2       4       1       27      
5       2       1       3       1       1       27      
0       0       0       0       0       0       
